100
300
40
0 0
79 23
4 58
66 5
70 17
64 82
42 95
8 63
3 53
60 63
14 54
12 57
16 93
47 34
57 12
43 55
54 54
80 70
15 57
82 8
66 44
46 3
21 55
58 6
72 8
28 84
9 79
38 27
6 30
78 22
14 13
29 76
15 68
17 83
13 53
90 56
33 84
89 61
9 54
48 32
18 63
0 0
50
30
40
50
60
30
30
60
40
50
30
50
50
60
70
70
60
30
50
30
50
30
40
50
60
30
30
60
40
50
30
50
50
60
70
70
60
30
50
30
